find differential-linear distinguihser/simon  find distinguisher/conflict.ilp
\ Model SIMON_DiffLinear_Cryptanalysis_copy
\ LP format - for model browsing. Use MPS format to capture full model detail.
\ Signature: 0xf15baa933b104e65
Minimize
  0 abs_corr_safe + 0 diffLinComplement_corr
Subject To
Bounds
 abs_corr_safe >= 1e-08
 -infinity <= diffLinComplement_corr <= 0
General Constraints
 log_corr_safe_4691_1749439238: abs_corr_safe =
   LOG ( diffLinComplement_corr )
End
